ADDGRID = .TRUE.
ALGO = Normal
EDIFF = 1E-8
ENCUT = 800
GGA = PS
ISIF = 2
ISMEAR = 0
LASPH = .TRUE.
LCHARG = .FALSE.
LREAL = .FALSE.
LWAVE = .FALSE.
NPAR = 2
NSW = 0
PREC = Accurate
SIGMA = 0.01
SYSTEM = SrO
