Sr  O                                   
   1.00000000000000     
     0.0000000000000000    2.5671049901180245    2.5671049901180245
     2.5671049901180245    0.0000000000000000    2.5671049901180245
     2.5671049901180245    2.5671049901180245    0.0000000000000000
   Sr   O 
     1     1
Direct
  0.0000000000000000  0.0000000000000000  0.0000000000000000
  0.5000000000000000  0.5000000000000000  0.5000000000000000
 
  0.00000000E+00  0.00000000E+00  0.00000000E+00
  0.00000000E+00  0.00000000E+00  0.00000000E+00
