Sr O
   1.0
     0.0000000000000000    5.1342099802360490    5.1342099802360490
     5.1342099802360490    0.0000000000000000    5.1342099802360490
     5.1342099802360490    5.1342099802360490    0.0000000000000000
   8    8
Direct
  0.0000000000000000  0.0000000000000000  0.0000000000000000
  0.5000000000000000  0.0000000000000000  0.0000000000000000
  0.0000000000000000  0.5000000000000000  0.0000000000000000
  0.5000000000000000  0.5000000000000000  0.0000000000000000
  0.0000000000000000 -0.0000000000000000  0.5000000000000000
  0.5000000000000001 -0.0000000000000000  0.5000000000000000
  0.0000000000000000  0.5000000000000000  0.5000000000000000
  0.5000000000000001  0.5000000000000000  0.5000000000000000
  0.2568862277147655  0.2500000000000000  0.2499999999999999
  0.7500000000000001  0.2500000000000000  0.2500000000000000
  0.2500000000000001  0.7500000000000000  0.2500000000000000
  0.7500000000000001  0.7500000000000000  0.2500000000000000
  0.2500000000000001  0.2500000000000000  0.7500000000000000
  0.7500000000000001  0.2500000000000000  0.7500000000000000
  0.2500000000000001  0.7500000000000000  0.7500000000000000
  0.7500000000000001  0.7500000000000000  0.7500000000000000
