ADDGRID = .TRUE.
ALGO = Fast
EDIFF = 1E-8
ENCUT = 800
GGA = PS
IBRION = 6
ISIF = 3
ISMEAR = 0
LASPH = .TRUE.
LCHARG = .FALSE.
LREAL = .FALSE.
LWAVE = .FALSE.
NFREE = 4
NSW = 1
NWRITE = 3
POTIM = 0.01
PREC = Accurate
SIGMA = 0.01
SYSTEM = SrO

